\Problem name: 

Minimize
OBJROW: -23 geode_0 -22 geode_1 -21 geode_2 -20 geode_3 -19 geode_4 -18 geode_5 -17 geode_6 -16 geode_7 -15 geode_8 -14 geode_9
 -13 geode_10 -12 geode_11 -11 geode_12 -10 geode_13 -9 geode_14 -8 geode_15 -7 geode_16 -6 geode_17 -5 geode_18 -4 geode_19
 -3 geode_20 -2 geode_21 - geode_22
Subject To
constr(0):  ore_0 + clay_0 + obsidian_0 + geode_0 <= 1
constr(1):  -2 ore_0 -2 clay_0 -2 obsidian_0 -2 geode_0 >= -0
constr(2):  -10 obsidian_0 >= -0
constr(3):  -11 geode_0 >= -0
constr(4):  ore_1 + clay_1 + obsidian_1 + geode_1 <= 1
constr(5):  -2 ore_0 -2 clay_0 -2 obsidian_0 -2 geode_0 -2 ore_1 -2 clay_1 -2 obsidian_1 -2 geode_1 >= -1
constr(6):  -10 obsidian_0 -10 obsidian_1 >= -0
constr(7):  -11 geode_0 -11 geode_1 >= -0
constr(8):  ore_2 + clay_2 + obsidian_2 + geode_2 <= 1
constr(9):  - ore_0 -2 clay_0 -2 obsidian_0 -2 geode_0 -2 ore_1 -2 clay_1 -2 obsidian_1 -2 geode_1 -2 ore_2 -2 clay_2
 -2 obsidian_2 -2 geode_2 >= -2
constr(10):  clay_0 -10 obsidian_0 -10 obsidian_1 -10 obsidian_2 >= -0
constr(11):  obsidian_0 -11 geode_0 -11 geode_1 -11 geode_2 >= -0
constr(12):  ore_3 + clay_3 + obsidian_3 + geode_3 <= 1
constr(13):  -2 clay_0 -2 obsidian_0 -2 geode_0 - ore_1 -2 clay_1 -2 obsidian_1 -2 geode_1 -2 ore_2 -2 clay_2 -2 obsidian_2
 -2 geode_2 -2 ore_3 -2 clay_3 -2 obsidian_3 -2 geode_3 >= -3
constr(14):  2 clay_0 -10 obsidian_0 + clay_1 -10 obsidian_1 -10 obsidian_2 -10 obsidian_3 >= -0
constr(15):  2 obsidian_0 -11 geode_0 + obsidian_1 -11 geode_1 -11 geode_2 -11 geode_3 >= -0
constr(16):  ore_4 + clay_4 + obsidian_4 + geode_4 <= 1
constr(17):  ore_0 -2 clay_0 -2 obsidian_0 -2 geode_0 -2 clay_1 -2 obsidian_1 -2 geode_1 - ore_2 -2 clay_2 -2 obsidian_2
 -2 geode_2 -2 ore_3 -2 clay_3 -2 obsidian_3 -2 geode_3 -2 ore_4 -2 clay_4 -2 obsidian_4 -2 geode_4 >= -4
constr(18):  3 clay_0 -10 obsidian_0 + 2 clay_1 -10 obsidian_1 + clay_2 -10 obsidian_2 -10 obsidian_3 -10 obsidian_4 >= -0
constr(19):  3 obsidian_0 -11 geode_0 + 2 obsidian_1 -11 geode_1 + obsidian_2 -11 geode_2 -11 geode_3 -11 geode_4 >= -0
constr(20):  ore_5 + clay_5 + obsidian_5 + geode_5 <= 1
constr(21):  2 ore_0 -2 clay_0 -2 obsidian_0 -2 geode_0 + ore_1 -2 clay_1 -2 obsidian_1 -2 geode_1 -2 clay_2 -2 obsidian_2
 -2 geode_2 - ore_3 -2 clay_3 -2 obsidian_3 -2 geode_3 -2 ore_4 -2 clay_4 -2 obsidian_4 -2 geode_4 -2 ore_5
 -2 clay_5 -2 obsidian_5 -2 geode_5 >= -5
constr(22):  4 clay_0 -10 obsidian_0 + 3 clay_1 -10 obsidian_1 + 2 clay_2 -10 obsidian_2 + clay_3 -10 obsidian_3 -10 obsidian_4 -10 obsidian_5
 >= -0
constr(23):  4 obsidian_0 -11 geode_0 + 3 obsidian_1 -11 geode_1 + 2 obsidian_2 -11 geode_2 + obsidian_3 -11 geode_3 -11 geode_4 -11 geode_5
 >= -0
constr(24):  ore_6 + clay_6 + obsidian_6 + geode_6 <= 1
constr(25):  3 ore_0 -2 clay_0 -2 obsidian_0 -2 geode_0 + 2 ore_1 -2 clay_1 -2 obsidian_1 -2 geode_1 + ore_2 -2 clay_2
 -2 obsidian_2 -2 geode_2 -2 clay_3 -2 obsidian_3 -2 geode_3 - ore_4 -2 clay_4 -2 obsidian_4 -2 geode_4 -2 ore_5
 -2 clay_5 -2 obsidian_5 -2 geode_5 -2 ore_6 -2 clay_6 -2 obsidian_6 -2 geode_6 >= -6
constr(26):  5 clay_0 -10 obsidian_0 + 4 clay_1 -10 obsidian_1 + 3 clay_2 -10 obsidian_2 + 2 clay_3 -10 obsidian_3 + clay_4 -10 obsidian_4
 -10 obsidian_5 -10 obsidian_6 >= -0
constr(27):  5 obsidian_0 -11 geode_0 + 4 obsidian_1 -11 geode_1 + 3 obsidian_2 -11 geode_2 + 2 obsidian_3 -11 geode_3 + obsidian_4 -11 geode_4
 -11 geode_5 -11 geode_6 >= -0
constr(28):  ore_7 + clay_7 + obsidian_7 + geode_7 <= 1
constr(29):  4 ore_0 -2 clay_0 -2 obsidian_0 -2 geode_0 + 3 ore_1 -2 clay_1 -2 obsidian_1 -2 geode_1 + 2 ore_2 -2 clay_2
 -2 obsidian_2 -2 geode_2 + ore_3 -2 clay_3 -2 obsidian_3 -2 geode_3 -2 clay_4 -2 obsidian_4 -2 geode_4 - ore_5
 -2 clay_5 -2 obsidian_5 -2 geode_5 -2 ore_6 -2 clay_6 -2 obsidian_6 -2 geode_6 -2 ore_7 -2 clay_7 -2 obsidian_7
 -2 geode_7 >= -7
constr(30):  6 clay_0 -10 obsidian_0 + 5 clay_1 -10 obsidian_1 + 4 clay_2 -10 obsidian_2 + 3 clay_3 -10 obsidian_3 + 2 clay_4 -10 obsidian_4
 + clay_5 -10 obsidian_5 -10 obsidian_6 -10 obsidian_7 >= -0
constr(31):  6 obsidian_0 -11 geode_0 + 5 obsidian_1 -11 geode_1 + 4 obsidian_2 -11 geode_2 + 3 obsidian_3 -11 geode_3 + 2 obsidian_4 -11 geode_4
 + obsidian_5 -11 geode_5 -11 geode_6 -11 geode_7 >= -0
constr(32):  ore_8 + clay_8 + obsidian_8 + geode_8 <= 1
constr(33):  5 ore_0 -2 clay_0 -2 obsidian_0 -2 geode_0 + 4 ore_1 -2 clay_1 -2 obsidian_1 -2 geode_1 + 3 ore_2 -2 clay_2
 -2 obsidian_2 -2 geode_2 + 2 ore_3 -2 clay_3 -2 obsidian_3 -2 geode_3 + ore_4 -2 clay_4 -2 obsidian_4 -2 geode_4
 -2 clay_5 -2 obsidian_5 -2 geode_5 - ore_6 -2 clay_6 -2 obsidian_6 -2 geode_6 -2 ore_7 -2 clay_7 -2 obsidian_7
 -2 geode_7 -2 ore_8 -2 clay_8 -2 obsidian_8 -2 geode_8 >= -8
constr(34):  7 clay_0 -10 obsidian_0 + 6 clay_1 -10 obsidian_1 + 5 clay_2 -10 obsidian_2 + 4 clay_3 -10 obsidian_3 + 3 clay_4 -10 obsidian_4
 + 2 clay_5 -10 obsidian_5 + clay_6 -10 obsidian_6 -10 obsidian_7 -10 obsidian_8 >= -0
constr(35):  7 obsidian_0 -11 geode_0 + 6 obsidian_1 -11 geode_1 + 5 obsidian_2 -11 geode_2 + 4 obsidian_3 -11 geode_3 + 3 obsidian_4 -11 geode_4
 + 2 obsidian_5 -11 geode_5 + obsidian_6 -11 geode_6 -11 geode_7 -11 geode_8 >= -0
constr(36):  ore_9 + clay_9 + obsidian_9 + geode_9 <= 1
constr(37):  6 ore_0 -2 clay_0 -2 obsidian_0 -2 geode_0 + 5 ore_1 -2 clay_1 -2 obsidian_1 -2 geode_1 + 4 ore_2 -2 clay_2
 -2 obsidian_2 -2 geode_2 + 3 ore_3 -2 clay_3 -2 obsidian_3 -2 geode_3 + 2 ore_4 -2 clay_4 -2 obsidian_4 -2 geode_4
 + ore_5 -2 clay_5 -2 obsidian_5 -2 geode_5 -2 clay_6 -2 obsidian_6 -2 geode_6 - ore_7 -2 clay_7 -2 obsidian_7
 -2 geode_7 -2 ore_8 -2 clay_8 -2 obsidian_8 -2 geode_8 -2 ore_9 -2 clay_9 -2 obsidian_9 -2 geode_9 >= -9
constr(38):  8 clay_0 -10 obsidian_0 + 7 clay_1 -10 obsidian_1 + 6 clay_2 -10 obsidian_2 + 5 clay_3 -10 obsidian_3 + 4 clay_4 -10 obsidian_4
 + 3 clay_5 -10 obsidian_5 + 2 clay_6 -10 obsidian_6 + clay_7 -10 obsidian_7 -10 obsidian_8 -10 obsidian_9 >= -0
constr(39):  8 obsidian_0 -11 geode_0 + 7 obsidian_1 -11 geode_1 + 6 obsidian_2 -11 geode_2 + 5 obsidian_3 -11 geode_3 + 4 obsidian_4 -11 geode_4
 + 3 obsidian_5 -11 geode_5 + 2 obsidian_6 -11 geode_6 + obsidian_7 -11 geode_7 -11 geode_8 -11 geode_9 >= -0
constr(40):  ore_10 + clay_10 + obsidian_10 + geode_10 <= 1
constr(41):  7 ore_0 -2 clay_0 -2 obsidian_0 -2 geode_0 + 6 ore_1 -2 clay_1 -2 obsidian_1 -2 geode_1 + 5 ore_2 -2 clay_2
 -2 obsidian_2 -2 geode_2 + 4 ore_3 -2 clay_3 -2 obsidian_3 -2 geode_3 + 3 ore_4 -2 clay_4 -2 obsidian_4 -2 geode_4
 + 2 ore_5 -2 clay_5 -2 obsidian_5 -2 geode_5 + ore_6 -2 clay_6 -2 obsidian_6 -2 geode_6 -2 clay_7 -2 obsidian_7
 -2 geode_7 - ore_8 -2 clay_8 -2 obsidian_8 -2 geode_8 -2 ore_9 -2 clay_9 -2 obsidian_9 -2 geode_9 -2 ore_10
 -2 clay_10 -2 obsidian_10 -2 geode_10 >= -10
constr(42):  9 clay_0 -10 obsidian_0 + 8 clay_1 -10 obsidian_1 + 7 clay_2 -10 obsidian_2 + 6 clay_3 -10 obsidian_3 + 5 clay_4 -10 obsidian_4
 + 4 clay_5 -10 obsidian_5 + 3 clay_6 -10 obsidian_6 + 2 clay_7 -10 obsidian_7 + clay_8 -10 obsidian_8 -10 obsidian_9 -10 obsidian_10
 >= -0
constr(43):  9 obsidian_0 -11 geode_0 + 8 obsidian_1 -11 geode_1 + 7 obsidian_2 -11 geode_2 + 6 obsidian_3 -11 geode_3 + 5 obsidian_4 -11 geode_4
 + 4 obsidian_5 -11 geode_5 + 3 obsidian_6 -11 geode_6 + 2 obsidian_7 -11 geode_7 + obsidian_8 -11 geode_8 -11 geode_9 -11 geode_10
 >= -0
constr(44):  ore_11 + clay_11 + obsidian_11 + geode_11 <= 1
constr(45):  8 ore_0 -2 clay_0 -2 obsidian_0 -2 geode_0 + 7 ore_1 -2 clay_1 -2 obsidian_1 -2 geode_1 + 6 ore_2 -2 clay_2
 -2 obsidian_2 -2 geode_2 + 5 ore_3 -2 clay_3 -2 obsidian_3 -2 geode_3 + 4 ore_4 -2 clay_4 -2 obsidian_4 -2 geode_4
 + 3 ore_5 -2 clay_5 -2 obsidian_5 -2 geode_5 + 2 ore_6 -2 clay_6 -2 obsidian_6 -2 geode_6 + ore_7 -2 clay_7
 -2 obsidian_7 -2 geode_7 -2 clay_8 -2 obsidian_8 -2 geode_8 - ore_9 -2 clay_9 -2 obsidian_9 -2 geode_9 -2 ore_10
 -2 clay_10 -2 obsidian_10 -2 geode_10 -2 ore_11 -2 clay_11 -2 obsidian_11 -2 geode_11 >= -11
constr(46):  10 clay_0 -10 obsidian_0 + 9 clay_1 -10 obsidian_1 + 8 clay_2 -10 obsidian_2 + 7 clay_3 -10 obsidian_3 + 6 clay_4 -10 obsidian_4
 + 5 clay_5 -10 obsidian_5 + 4 clay_6 -10 obsidian_6 + 3 clay_7 -10 obsidian_7 + 2 clay_8 -10 obsidian_8 + clay_9 -10 obsidian_9
 -10 obsidian_10 -10 obsidian_11 >= -0
constr(47):  10 obsidian_0 -11 geode_0 + 9 obsidian_1 -11 geode_1 + 8 obsidian_2 -11 geode_2 + 7 obsidian_3 -11 geode_3 + 6 obsidian_4 -11 geode_4
 + 5 obsidian_5 -11 geode_5 + 4 obsidian_6 -11 geode_6 + 3 obsidian_7 -11 geode_7 + 2 obsidian_8 -11 geode_8 + obsidian_9 -11 geode_9
 -11 geode_10 -11 geode_11 >= -0
constr(48):  ore_12 + clay_12 + obsidian_12 + geode_12 <= 1
constr(49):  9 ore_0 -2 clay_0 -2 obsidian_0 -2 geode_0 + 8 ore_1 -2 clay_1 -2 obsidian_1 -2 geode_1 + 7 ore_2 -2 clay_2
 -2 obsidian_2 -2 geode_2 + 6 ore_3 -2 clay_3 -2 obsidian_3 -2 geode_3 + 5 ore_4 -2 clay_4 -2 obsidian_4 -2 geode_4
 + 4 ore_5 -2 clay_5 -2 obsidian_5 -2 geode_5 + 3 ore_6 -2 clay_6 -2 obsidian_6 -2 geode_6 + 2 ore_7 -2 clay_7
 -2 obsidian_7 -2 geode_7 + ore_8 -2 clay_8 -2 obsidian_8 -2 geode_8 -2 clay_9 -2 obsidian_9 -2 geode_9 - ore_10
 -2 clay_10 -2 obsidian_10 -2 geode_10 -2 ore_11 -2 clay_11 -2 obsidian_11 -2 geode_11 -2 ore_12 -2 clay_12 -2 obsidian_12
 -2 geode_12 >= -12
constr(50):  11 clay_0 -10 obsidian_0 + 10 clay_1 -10 obsidian_1 + 9 clay_2 -10 obsidian_2 + 8 clay_3 -10 obsidian_3 + 7 clay_4 -10 obsidian_4
 + 6 clay_5 -10 obsidian_5 + 5 clay_6 -10 obsidian_6 + 4 clay_7 -10 obsidian_7 + 3 clay_8 -10 obsidian_8 + 2 clay_9 -10 obsidian_9
 + clay_10 -10 obsidian_10 -10 obsidian_11 -10 obsidian_12 >= -0
constr(51):  11 obsidian_0 -11 geode_0 + 10 obsidian_1 -11 geode_1 + 9 obsidian_2 -11 geode_2 + 8 obsidian_3 -11 geode_3 + 7 obsidian_4 -11 geode_4
 + 6 obsidian_5 -11 geode_5 + 5 obsidian_6 -11 geode_6 + 4 obsidian_7 -11 geode_7 + 3 obsidian_8 -11 geode_8 + 2 obsidian_9 -11 geode_9
 + obsidian_10 -11 geode_10 -11 geode_11 -11 geode_12 >= -0
constr(52):  ore_13 + clay_13 + obsidian_13 + geode_13 <= 1
constr(53):  10 ore_0 -2 clay_0 -2 obsidian_0 -2 geode_0 + 9 ore_1 -2 clay_1 -2 obsidian_1 -2 geode_1 + 8 ore_2 -2 clay_2
 -2 obsidian_2 -2 geode_2 + 7 ore_3 -2 clay_3 -2 obsidian_3 -2 geode_3 + 6 ore_4 -2 clay_4 -2 obsidian_4 -2 geode_4
 + 5 ore_5 -2 clay_5 -2 obsidian_5 -2 geode_5 + 4 ore_6 -2 clay_6 -2 obsidian_6 -2 geode_6 + 3 ore_7 -2 clay_7
 -2 obsidian_7 -2 geode_7 + 2 ore_8 -2 clay_8 -2 obsidian_8 -2 geode_8 + ore_9 -2 clay_9 -2 obsidian_9 -2 geode_9
 -2 clay_10 -2 obsidian_10 -2 geode_10 - ore_11 -2 clay_11 -2 obsidian_11 -2 geode_11 -2 ore_12 -2 clay_12 -2 obsidian_12
 -2 geode_12 -2 ore_13 -2 clay_13 -2 obsidian_13 -2 geode_13 >= -13
constr(54):  12 clay_0 -10 obsidian_0 + 11 clay_1 -10 obsidian_1 + 10 clay_2 -10 obsidian_2 + 9 clay_3 -10 obsidian_3 + 8 clay_4 -10 obsidian_4
 + 7 clay_5 -10 obsidian_5 + 6 clay_6 -10 obsidian_6 + 5 clay_7 -10 obsidian_7 + 4 clay_8 -10 obsidian_8 + 3 clay_9 -10 obsidian_9
 + 2 clay_10 -10 obsidian_10 + clay_11 -10 obsidian_11 -10 obsidian_12 -10 obsidian_13 >= -0
constr(55):  12 obsidian_0 -11 geode_0 + 11 obsidian_1 -11 geode_1 + 10 obsidian_2 -11 geode_2 + 9 obsidian_3 -11 geode_3 + 8 obsidian_4 -11 geode_4
 + 7 obsidian_5 -11 geode_5 + 6 obsidian_6 -11 geode_6 + 5 obsidian_7 -11 geode_7 + 4 obsidian_8 -11 geode_8 + 3 obsidian_9 -11 geode_9
 + 2 obsidian_10 -11 geode_10 + obsidian_11 -11 geode_11 -11 geode_12 -11 geode_13 >= -0
constr(56):  ore_14 + clay_14 + obsidian_14 + geode_14 <= 1
constr(57):  11 ore_0 -2 clay_0 -2 obsidian_0 -2 geode_0 + 10 ore_1 -2 clay_1 -2 obsidian_1 -2 geode_1 + 9 ore_2 -2 clay_2
 -2 obsidian_2 -2 geode_2 + 8 ore_3 -2 clay_3 -2 obsidian_3 -2 geode_3 + 7 ore_4 -2 clay_4 -2 obsidian_4 -2 geode_4
 + 6 ore_5 -2 clay_5 -2 obsidian_5 -2 geode_5 + 5 ore_6 -2 clay_6 -2 obsidian_6 -2 geode_6 + 4 ore_7 -2 clay_7
 -2 obsidian_7 -2 geode_7 + 3 ore_8 -2 clay_8 -2 obsidian_8 -2 geode_8 + 2 ore_9 -2 clay_9 -2 obsidian_9 -2 geode_9
 + ore_10 -2 clay_10 -2 obsidian_10 -2 geode_10 -2 clay_11 -2 obsidian_11 -2 geode_11 - ore_12 -2 clay_12 -2 obsidian_12
 -2 geode_12 -2 ore_13 -2 clay_13 -2 obsidian_13 -2 geode_13 -2 ore_14 -2 clay_14 -2 obsidian_14 -2 geode_14 >= -14
constr(58):  13 clay_0 -10 obsidian_0 + 12 clay_1 -10 obsidian_1 + 11 clay_2 -10 obsidian_2 + 10 clay_3 -10 obsidian_3 + 9 clay_4 -10 obsidian_4
 + 8 clay_5 -10 obsidian_5 + 7 clay_6 -10 obsidian_6 + 6 clay_7 -10 obsidian_7 + 5 clay_8 -10 obsidian_8 + 4 clay_9 -10 obsidian_9
 + 3 clay_10 -10 obsidian_10 + 2 clay_11 -10 obsidian_11 + clay_12 -10 obsidian_12 -10 obsidian_13 -10 obsidian_14 >= -0
constr(59):  13 obsidian_0 -11 geode_0 + 12 obsidian_1 -11 geode_1 + 11 obsidian_2 -11 geode_2 + 10 obsidian_3 -11 geode_3 + 9 obsidian_4 -11 geode_4
 + 8 obsidian_5 -11 geode_5 + 7 obsidian_6 -11 geode_6 + 6 obsidian_7 -11 geode_7 + 5 obsidian_8 -11 geode_8 + 4 obsidian_9 -11 geode_9
 + 3 obsidian_10 -11 geode_10 + 2 obsidian_11 -11 geode_11 + obsidian_12 -11 geode_12 -11 geode_13 -11 geode_14 >= -0
constr(60):  ore_15 + clay_15 + obsidian_15 + geode_15 <= 1
constr(61):  12 ore_0 -2 clay_0 -2 obsidian_0 -2 geode_0 + 11 ore_1 -2 clay_1 -2 obsidian_1 -2 geode_1 + 10 ore_2 -2 clay_2
 -2 obsidian_2 -2 geode_2 + 9 ore_3 -2 clay_3 -2 obsidian_3 -2 geode_3 + 8 ore_4 -2 clay_4 -2 obsidian_4 -2 geode_4
 + 7 ore_5 -2 clay_5 -2 obsidian_5 -2 geode_5 + 6 ore_6 -2 clay_6 -2 obsidian_6 -2 geode_6 + 5 ore_7 -2 clay_7
 -2 obsidian_7 -2 geode_7 + 4 ore_8 -2 clay_8 -2 obsidian_8 -2 geode_8 + 3 ore_9 -2 clay_9 -2 obsidian_9 -2 geode_9
 + 2 ore_10 -2 clay_10 -2 obsidian_10 -2 geode_10 + ore_11 -2 clay_11 -2 obsidian_11 -2 geode_11 -2 clay_12 -2 obsidian_12
 -2 geode_12 - ore_13 -2 clay_13 -2 obsidian_13 -2 geode_13 -2 ore_14 -2 clay_14 -2 obsidian_14 -2 geode_14 -2 ore_15
 -2 clay_15 -2 obsidian_15 -2 geode_15 >= -15
constr(62):  14 clay_0 -10 obsidian_0 + 13 clay_1 -10 obsidian_1 + 12 clay_2 -10 obsidian_2 + 11 clay_3 -10 obsidian_3 + 10 clay_4 -10 obsidian_4
 + 9 clay_5 -10 obsidian_5 + 8 clay_6 -10 obsidian_6 + 7 clay_7 -10 obsidian_7 + 6 clay_8 -10 obsidian_8 + 5 clay_9 -10 obsidian_9
 + 4 clay_10 -10 obsidian_10 + 3 clay_11 -10 obsidian_11 + 2 clay_12 -10 obsidian_12 + clay_13 -10 obsidian_13 -10 obsidian_14 -10 obsidian_15
 >= -0
constr(63):  14 obsidian_0 -11 geode_0 + 13 obsidian_1 -11 geode_1 + 12 obsidian_2 -11 geode_2 + 11 obsidian_3 -11 geode_3 + 10 obsidian_4 -11 geode_4
 + 9 obsidian_5 -11 geode_5 + 8 obsidian_6 -11 geode_6 + 7 obsidian_7 -11 geode_7 + 6 obsidian_8 -11 geode_8 + 5 obsidian_9 -11 geode_9
 + 4 obsidian_10 -11 geode_10 + 3 obsidian_11 -11 geode_11 + 2 obsidian_12 -11 geode_12 + obsidian_13 -11 geode_13 -11 geode_14 -11 geode_15
 >= -0
constr(64):  ore_16 + clay_16 + obsidian_16 + geode_16 <= 1
constr(65):  13 ore_0 -2 clay_0 -2 obsidian_0 -2 geode_0 + 12 ore_1 -2 clay_1 -2 obsidian_1 -2 geode_1 + 11 ore_2 -2 clay_2
 -2 obsidian_2 -2 geode_2 + 10 ore_3 -2 clay_3 -2 obsidian_3 -2 geode_3 + 9 ore_4 -2 clay_4 -2 obsidian_4 -2 geode_4
 + 8 ore_5 -2 clay_5 -2 obsidian_5 -2 geode_5 + 7 ore_6 -2 clay_6 -2 obsidian_6 -2 geode_6 + 6 ore_7 -2 clay_7
 -2 obsidian_7 -2 geode_7 + 5 ore_8 -2 clay_8 -2 obsidian_8 -2 geode_8 + 4 ore_9 -2 clay_9 -2 obsidian_9 -2 geode_9
 + 3 ore_10 -2 clay_10 -2 obsidian_10 -2 geode_10 + 2 ore_11 -2 clay_11 -2 obsidian_11 -2 geode_11 + ore_12 -2 clay_12
 -2 obsidian_12 -2 geode_12 -2 clay_13 -2 obsidian_13 -2 geode_13 - ore_14 -2 clay_14 -2 obsidian_14 -2 geode_14 -2 ore_15
 -2 clay_15 -2 obsidian_15 -2 geode_15 -2 ore_16 -2 clay_16 -2 obsidian_16 -2 geode_16 >= -16
constr(66):  15 clay_0 -10 obsidian_0 + 14 clay_1 -10 obsidian_1 + 13 clay_2 -10 obsidian_2 + 12 clay_3 -10 obsidian_3 + 11 clay_4 -10 obsidian_4
 + 10 clay_5 -10 obsidian_5 + 9 clay_6 -10 obsidian_6 + 8 clay_7 -10 obsidian_7 + 7 clay_8 -10 obsidian_8 + 6 clay_9 -10 obsidian_9
 + 5 clay_10 -10 obsidian_10 + 4 clay_11 -10 obsidian_11 + 3 clay_12 -10 obsidian_12 + 2 clay_13 -10 obsidian_13 + clay_14 -10 obsidian_14
 -10 obsidian_15 -10 obsidian_16 >= -0
constr(67):  15 obsidian_0 -11 geode_0 + 14 obsidian_1 -11 geode_1 + 13 obsidian_2 -11 geode_2 + 12 obsidian_3 -11 geode_3 + 11 obsidian_4 -11 geode_4
 + 10 obsidian_5 -11 geode_5 + 9 obsidian_6 -11 geode_6 + 8 obsidian_7 -11 geode_7 + 7 obsidian_8 -11 geode_8 + 6 obsidian_9 -11 geode_9
 + 5 obsidian_10 -11 geode_10 + 4 obsidian_11 -11 geode_11 + 3 obsidian_12 -11 geode_12 + 2 obsidian_13 -11 geode_13 + obsidian_14 -11 geode_14
 -11 geode_15 -11 geode_16 >= -0
constr(68):  ore_17 + clay_17 + obsidian_17 + geode_17 <= 1
constr(69):  14 ore_0 -2 clay_0 -2 obsidian_0 -2 geode_0 + 13 ore_1 -2 clay_1 -2 obsidian_1 -2 geode_1 + 12 ore_2 -2 clay_2
 -2 obsidian_2 -2 geode_2 + 11 ore_3 -2 clay_3 -2 obsidian_3 -2 geode_3 + 10 ore_4 -2 clay_4 -2 obsidian_4 -2 geode_4
 + 9 ore_5 -2 clay_5 -2 obsidian_5 -2 geode_5 + 8 ore_6 -2 clay_6 -2 obsidian_6 -2 geode_6 + 7 ore_7 -2 clay_7
 -2 obsidian_7 -2 geode_7 + 6 ore_8 -2 clay_8 -2 obsidian_8 -2 geode_8 + 5 ore_9 -2 clay_9 -2 obsidian_9 -2 geode_9
 + 4 ore_10 -2 clay_10 -2 obsidian_10 -2 geode_10 + 3 ore_11 -2 clay_11 -2 obsidian_11 -2 geode_11 + 2 ore_12 -2 clay_12
 -2 obsidian_12 -2 geode_12 + ore_13 -2 clay_13 -2 obsidian_13 -2 geode_13 -2 clay_14 -2 obsidian_14 -2 geode_14 - ore_15
 -2 clay_15 -2 obsidian_15 -2 geode_15 -2 ore_16 -2 clay_16 -2 obsidian_16 -2 geode_16 -2 ore_17 -2 clay_17 -2 obsidian_17
 -2 geode_17 >= -17
constr(70):  16 clay_0 -10 obsidian_0 + 15 clay_1 -10 obsidian_1 + 14 clay_2 -10 obsidian_2 + 13 clay_3 -10 obsidian_3 + 12 clay_4 -10 obsidian_4
 + 11 clay_5 -10 obsidian_5 + 10 clay_6 -10 obsidian_6 + 9 clay_7 -10 obsidian_7 + 8 clay_8 -10 obsidian_8 + 7 clay_9 -10 obsidian_9
 + 6 clay_10 -10 obsidian_10 + 5 clay_11 -10 obsidian_11 + 4 clay_12 -10 obsidian_12 + 3 clay_13 -10 obsidian_13 + 2 clay_14 -10 obsidian_14
 + clay_15 -10 obsidian_15 -10 obsidian_16 -10 obsidian_17 >= -0
constr(71):  16 obsidian_0 -11 geode_0 + 15 obsidian_1 -11 geode_1 + 14 obsidian_2 -11 geode_2 + 13 obsidian_3 -11 geode_3 + 12 obsidian_4 -11 geode_4
 + 11 obsidian_5 -11 geode_5 + 10 obsidian_6 -11 geode_6 + 9 obsidian_7 -11 geode_7 + 8 obsidian_8 -11 geode_8 + 7 obsidian_9 -11 geode_9
 + 6 obsidian_10 -11 geode_10 + 5 obsidian_11 -11 geode_11 + 4 obsidian_12 -11 geode_12 + 3 obsidian_13 -11 geode_13 + 2 obsidian_14 -11 geode_14
 + obsidian_15 -11 geode_15 -11 geode_16 -11 geode_17 >= -0
constr(72):  ore_18 + clay_18 + obsidian_18 + geode_18 <= 1
constr(73):  15 ore_0 -2 clay_0 -2 obsidian_0 -2 geode_0 + 14 ore_1 -2 clay_1 -2 obsidian_1 -2 geode_1 + 13 ore_2 -2 clay_2
 -2 obsidian_2 -2 geode_2 + 12 ore_3 -2 clay_3 -2 obsidian_3 -2 geode_3 + 11 ore_4 -2 clay_4 -2 obsidian_4 -2 geode_4
 + 10 ore_5 -2 clay_5 -2 obsidian_5 -2 geode_5 + 9 ore_6 -2 clay_6 -2 obsidian_6 -2 geode_6 + 8 ore_7 -2 clay_7
 -2 obsidian_7 -2 geode_7 + 7 ore_8 -2 clay_8 -2 obsidian_8 -2 geode_8 + 6 ore_9 -2 clay_9 -2 obsidian_9 -2 geode_9
 + 5 ore_10 -2 clay_10 -2 obsidian_10 -2 geode_10 + 4 ore_11 -2 clay_11 -2 obsidian_11 -2 geode_11 + 3 ore_12 -2 clay_12
 -2 obsidian_12 -2 geode_12 + 2 ore_13 -2 clay_13 -2 obsidian_13 -2 geode_13 + ore_14 -2 clay_14 -2 obsidian_14 -2 geode_14
 -2 clay_15 -2 obsidian_15 -2 geode_15 - ore_16 -2 clay_16 -2 obsidian_16 -2 geode_16 -2 ore_17 -2 clay_17 -2 obsidian_17
 -2 geode_17 -2 ore_18 -2 clay_18 -2 obsidian_18 -2 geode_18 >= -18
constr(74):  17 clay_0 -10 obsidian_0 + 16 clay_1 -10 obsidian_1 + 15 clay_2 -10 obsidian_2 + 14 clay_3 -10 obsidian_3 + 13 clay_4 -10 obsidian_4
 + 12 clay_5 -10 obsidian_5 + 11 clay_6 -10 obsidian_6 + 10 clay_7 -10 obsidian_7 + 9 clay_8 -10 obsidian_8 + 8 clay_9 -10 obsidian_9
 + 7 clay_10 -10 obsidian_10 + 6 clay_11 -10 obsidian_11 + 5 clay_12 -10 obsidian_12 + 4 clay_13 -10 obsidian_13 + 3 clay_14 -10 obsidian_14
 + 2 clay_15 -10 obsidian_15 + clay_16 -10 obsidian_16 -10 obsidian_17 -10 obsidian_18 >= -0
constr(75):  17 obsidian_0 -11 geode_0 + 16 obsidian_1 -11 geode_1 + 15 obsidian_2 -11 geode_2 + 14 obsidian_3 -11 geode_3 + 13 obsidian_4 -11 geode_4
 + 12 obsidian_5 -11 geode_5 + 11 obsidian_6 -11 geode_6 + 10 obsidian_7 -11 geode_7 + 9 obsidian_8 -11 geode_8 + 8 obsidian_9 -11 geode_9
 + 7 obsidian_10 -11 geode_10 + 6 obsidian_11 -11 geode_11 + 5 obsidian_12 -11 geode_12 + 4 obsidian_13 -11 geode_13 + 3 obsidian_14 -11 geode_14
 + 2 obsidian_15 -11 geode_15 + obsidian_16 -11 geode_16 -11 geode_17 -11 geode_18 >= -0
constr(76):  ore_19 + clay_19 + obsidian_19 + geode_19 <= 1
constr(77):  16 ore_0 -2 clay_0 -2 obsidian_0 -2 geode_0 + 15 ore_1 -2 clay_1 -2 obsidian_1 -2 geode_1 + 14 ore_2 -2 clay_2
 -2 obsidian_2 -2 geode_2 + 13 ore_3 -2 clay_3 -2 obsidian_3 -2 geode_3 + 12 ore_4 -2 clay_4 -2 obsidian_4 -2 geode_4
 + 11 ore_5 -2 clay_5 -2 obsidian_5 -2 geode_5 + 10 ore_6 -2 clay_6 -2 obsidian_6 -2 geode_6 + 9 ore_7 -2 clay_7
 -2 obsidian_7 -2 geode_7 + 8 ore_8 -2 clay_8 -2 obsidian_8 -2 geode_8 + 7 ore_9 -2 clay_9 -2 obsidian_9 -2 geode_9
 + 6 ore_10 -2 clay_10 -2 obsidian_10 -2 geode_10 + 5 ore_11 -2 clay_11 -2 obsidian_11 -2 geode_11 + 4 ore_12 -2 clay_12
 -2 obsidian_12 -2 geode_12 + 3 ore_13 -2 clay_13 -2 obsidian_13 -2 geode_13 + 2 ore_14 -2 clay_14 -2 obsidian_14 -2 geode_14
 + ore_15 -2 clay_15 -2 obsidian_15 -2 geode_15 -2 clay_16 -2 obsidian_16 -2 geode_16 - ore_17 -2 clay_17 -2 obsidian_17
 -2 geode_17 -2 ore_18 -2 clay_18 -2 obsidian_18 -2 geode_18 -2 ore_19 -2 clay_19 -2 obsidian_19 -2 geode_19 >= -19
constr(78):  18 clay_0 -10 obsidian_0 + 17 clay_1 -10 obsidian_1 + 16 clay_2 -10 obsidian_2 + 15 clay_3 -10 obsidian_3 + 14 clay_4 -10 obsidian_4
 + 13 clay_5 -10 obsidian_5 + 12 clay_6 -10 obsidian_6 + 11 clay_7 -10 obsidian_7 + 10 clay_8 -10 obsidian_8 + 9 clay_9 -10 obsidian_9
 + 8 clay_10 -10 obsidian_10 + 7 clay_11 -10 obsidian_11 + 6 clay_12 -10 obsidian_12 + 5 clay_13 -10 obsidian_13 + 4 clay_14 -10 obsidian_14
 + 3 clay_15 -10 obsidian_15 + 2 clay_16 -10 obsidian_16 + clay_17 -10 obsidian_17 -10 obsidian_18 -10 obsidian_19 >= -0
constr(79):  18 obsidian_0 -11 geode_0 + 17 obsidian_1 -11 geode_1 + 16 obsidian_2 -11 geode_2 + 15 obsidian_3 -11 geode_3 + 14 obsidian_4 -11 geode_4
 + 13 obsidian_5 -11 geode_5 + 12 obsidian_6 -11 geode_6 + 11 obsidian_7 -11 geode_7 + 10 obsidian_8 -11 geode_8 + 9 obsidian_9 -11 geode_9
 + 8 obsidian_10 -11 geode_10 + 7 obsidian_11 -11 geode_11 + 6 obsidian_12 -11 geode_12 + 5 obsidian_13 -11 geode_13 + 4 obsidian_14 -11 geode_14
 + 3 obsidian_15 -11 geode_15 + 2 obsidian_16 -11 geode_16 + obsidian_17 -11 geode_17 -11 geode_18 -11 geode_19 >= -0
constr(80):  ore_20 + clay_20 + obsidian_20 + geode_20 <= 1
constr(81):  17 ore_0 -2 clay_0 -2 obsidian_0 -2 geode_0 + 16 ore_1 -2 clay_1 -2 obsidian_1 -2 geode_1 + 15 ore_2 -2 clay_2
 -2 obsidian_2 -2 geode_2 + 14 ore_3 -2 clay_3 -2 obsidian_3 -2 geode_3 + 13 ore_4 -2 clay_4 -2 obsidian_4 -2 geode_4
 + 12 ore_5 -2 clay_5 -2 obsidian_5 -2 geode_5 + 11 ore_6 -2 clay_6 -2 obsidian_6 -2 geode_6 + 10 ore_7 -2 clay_7
 -2 obsidian_7 -2 geode_7 + 9 ore_8 -2 clay_8 -2 obsidian_8 -2 geode_8 + 8 ore_9 -2 clay_9 -2 obsidian_9 -2 geode_9
 + 7 ore_10 -2 clay_10 -2 obsidian_10 -2 geode_10 + 6 ore_11 -2 clay_11 -2 obsidian_11 -2 geode_11 + 5 ore_12 -2 clay_12
 -2 obsidian_12 -2 geode_12 + 4 ore_13 -2 clay_13 -2 obsidian_13 -2 geode_13 + 3 ore_14 -2 clay_14 -2 obsidian_14 -2 geode_14
 + 2 ore_15 -2 clay_15 -2 obsidian_15 -2 geode_15 + ore_16 -2 clay_16 -2 obsidian_16 -2 geode_16 -2 clay_17 -2 obsidian_17
 -2 geode_17 - ore_18 -2 clay_18 -2 obsidian_18 -2 geode_18 -2 ore_19 -2 clay_19 -2 obsidian_19 -2 geode_19 -2 ore_20
 -2 clay_20 -2 obsidian_20 -2 geode_20 >= -20
constr(82):  19 clay_0 -10 obsidian_0 + 18 clay_1 -10 obsidian_1 + 17 clay_2 -10 obsidian_2 + 16 clay_3 -10 obsidian_3 + 15 clay_4 -10 obsidian_4
 + 14 clay_5 -10 obsidian_5 + 13 clay_6 -10 obsidian_6 + 12 clay_7 -10 obsidian_7 + 11 clay_8 -10 obsidian_8 + 10 clay_9 -10 obsidian_9
 + 9 clay_10 -10 obsidian_10 + 8 clay_11 -10 obsidian_11 + 7 clay_12 -10 obsidian_12 + 6 clay_13 -10 obsidian_13 + 5 clay_14 -10 obsidian_14
 + 4 clay_15 -10 obsidian_15 + 3 clay_16 -10 obsidian_16 + 2 clay_17 -10 obsidian_17 + clay_18 -10 obsidian_18 -10 obsidian_19 -10 obsidian_20
 >= -0
constr(83):  19 obsidian_0 -11 geode_0 + 18 obsidian_1 -11 geode_1 + 17 obsidian_2 -11 geode_2 + 16 obsidian_3 -11 geode_3 + 15 obsidian_4 -11 geode_4
 + 14 obsidian_5 -11 geode_5 + 13 obsidian_6 -11 geode_6 + 12 obsidian_7 -11 geode_7 + 11 obsidian_8 -11 geode_8 + 10 obsidian_9 -11 geode_9
 + 9 obsidian_10 -11 geode_10 + 8 obsidian_11 -11 geode_11 + 7 obsidian_12 -11 geode_12 + 6 obsidian_13 -11 geode_13 + 5 obsidian_14 -11 geode_14
 + 4 obsidian_15 -11 geode_15 + 3 obsidian_16 -11 geode_16 + 2 obsidian_17 -11 geode_17 + obsidian_18 -11 geode_18 -11 geode_19 -11 geode_20
 >= -0
constr(84):  ore_21 + clay_21 + obsidian_21 + geode_21 <= 1
constr(85):  18 ore_0 -2 clay_0 -2 obsidian_0 -2 geode_0 + 17 ore_1 -2 clay_1 -2 obsidian_1 -2 geode_1 + 16 ore_2 -2 clay_2
 -2 obsidian_2 -2 geode_2 + 15 ore_3 -2 clay_3 -2 obsidian_3 -2 geode_3 + 14 ore_4 -2 clay_4 -2 obsidian_4 -2 geode_4
 + 13 ore_5 -2 clay_5 -2 obsidian_5 -2 geode_5 + 12 ore_6 -2 clay_6 -2 obsidian_6 -2 geode_6 + 11 ore_7 -2 clay_7
 -2 obsidian_7 -2 geode_7 + 10 ore_8 -2 clay_8 -2 obsidian_8 -2 geode_8 + 9 ore_9 -2 clay_9 -2 obsidian_9 -2 geode_9
 + 8 ore_10 -2 clay_10 -2 obsidian_10 -2 geode_10 + 7 ore_11 -2 clay_11 -2 obsidian_11 -2 geode_11 + 6 ore_12 -2 clay_12
 -2 obsidian_12 -2 geode_12 + 5 ore_13 -2 clay_13 -2 obsidian_13 -2 geode_13 + 4 ore_14 -2 clay_14 -2 obsidian_14 -2 geode_14
 + 3 ore_15 -2 clay_15 -2 obsidian_15 -2 geode_15 + 2 ore_16 -2 clay_16 -2 obsidian_16 -2 geode_16 + ore_17 -2 clay_17
 -2 obsidian_17 -2 geode_17 -2 clay_18 -2 obsidian_18 -2 geode_18 - ore_19 -2 clay_19 -2 obsidian_19 -2 geode_19 -2 ore_20
 -2 clay_20 -2 obsidian_20 -2 geode_20 -2 ore_21 -2 clay_21 -2 obsidian_21 -2 geode_21 >= -21
constr(86):  20 clay_0 -10 obsidian_0 + 19 clay_1 -10 obsidian_1 + 18 clay_2 -10 obsidian_2 + 17 clay_3 -10 obsidian_3 + 16 clay_4 -10 obsidian_4
 + 15 clay_5 -10 obsidian_5 + 14 clay_6 -10 obsidian_6 + 13 clay_7 -10 obsidian_7 + 12 clay_8 -10 obsidian_8 + 11 clay_9 -10 obsidian_9
 + 10 clay_10 -10 obsidian_10 + 9 clay_11 -10 obsidian_11 + 8 clay_12 -10 obsidian_12 + 7 clay_13 -10 obsidian_13 + 6 clay_14 -10 obsidian_14
 + 5 clay_15 -10 obsidian_15 + 4 clay_16 -10 obsidian_16 + 3 clay_17 -10 obsidian_17 + 2 clay_18 -10 obsidian_18 + clay_19 -10 obsidian_19
 -10 obsidian_20 -10 obsidian_21 >= -0
constr(87):  20 obsidian_0 -11 geode_0 + 19 obsidian_1 -11 geode_1 + 18 obsidian_2 -11 geode_2 + 17 obsidian_3 -11 geode_3 + 16 obsidian_4 -11 geode_4
 + 15 obsidian_5 -11 geode_5 + 14 obsidian_6 -11 geode_6 + 13 obsidian_7 -11 geode_7 + 12 obsidian_8 -11 geode_8 + 11 obsidian_9 -11 geode_9
 + 10 obsidian_10 -11 geode_10 + 9 obsidian_11 -11 geode_11 + 8 obsidian_12 -11 geode_12 + 7 obsidian_13 -11 geode_13 + 6 obsidian_14 -11 geode_14
 + 5 obsidian_15 -11 geode_15 + 4 obsidian_16 -11 geode_16 + 3 obsidian_17 -11 geode_17 + 2 obsidian_18 -11 geode_18 + obsidian_19 -11 geode_19
 -11 geode_20 -11 geode_21 >= -0
constr(88):  ore_22 + clay_22 + obsidian_22 + geode_22 <= 1
constr(89):  19 ore_0 -2 clay_0 -2 obsidian_0 -2 geode_0 + 18 ore_1 -2 clay_1 -2 obsidian_1 -2 geode_1 + 17 ore_2 -2 clay_2
 -2 obsidian_2 -2 geode_2 + 16 ore_3 -2 clay_3 -2 obsidian_3 -2 geode_3 + 15 ore_4 -2 clay_4 -2 obsidian_4 -2 geode_4
 + 14 ore_5 -2 clay_5 -2 obsidian_5 -2 geode_5 + 13 ore_6 -2 clay_6 -2 obsidian_6 -2 geode_6 + 12 ore_7 -2 clay_7
 -2 obsidian_7 -2 geode_7 + 11 ore_8 -2 clay_8 -2 obsidian_8 -2 geode_8 + 10 ore_9 -2 clay_9 -2 obsidian_9 -2 geode_9
 + 9 ore_10 -2 clay_10 -2 obsidian_10 -2 geode_10 + 8 ore_11 -2 clay_11 -2 obsidian_11 -2 geode_11 + 7 ore_12 -2 clay_12
 -2 obsidian_12 -2 geode_12 + 6 ore_13 -2 clay_13 -2 obsidian_13 -2 geode_13 + 5 ore_14 -2 clay_14 -2 obsidian_14 -2 geode_14
 + 4 ore_15 -2 clay_15 -2 obsidian_15 -2 geode_15 + 3 ore_16 -2 clay_16 -2 obsidian_16 -2 geode_16 + 2 ore_17 -2 clay_17
 -2 obsidian_17 -2 geode_17 + ore_18 -2 clay_18 -2 obsidian_18 -2 geode_18 -2 clay_19 -2 obsidian_19 -2 geode_19 - ore_20
 -2 clay_20 -2 obsidian_20 -2 geode_20 -2 ore_21 -2 clay_21 -2 obsidian_21 -2 geode_21 -2 ore_22 -2 clay_22 -2 obsidian_22
 -2 geode_22 >= -22
constr(90):  21 clay_0 -10 obsidian_0 + 20 clay_1 -10 obsidian_1 + 19 clay_2 -10 obsidian_2 + 18 clay_3 -10 obsidian_3 + 17 clay_4 -10 obsidian_4
 + 16 clay_5 -10 obsidian_5 + 15 clay_6 -10 obsidian_6 + 14 clay_7 -10 obsidian_7 + 13 clay_8 -10 obsidian_8 + 12 clay_9 -10 obsidian_9
 + 11 clay_10 -10 obsidian_10 + 10 clay_11 -10 obsidian_11 + 9 clay_12 -10 obsidian_12 + 8 clay_13 -10 obsidian_13 + 7 clay_14 -10 obsidian_14
 + 6 clay_15 -10 obsidian_15 + 5 clay_16 -10 obsidian_16 + 4 clay_17 -10 obsidian_17 + 3 clay_18 -10 obsidian_18 + 2 clay_19 -10 obsidian_19
 + clay_20 -10 obsidian_20 -10 obsidian_21 -10 obsidian_22 >= -0
constr(91):  21 obsidian_0 -11 geode_0 + 20 obsidian_1 -11 geode_1 + 19 obsidian_2 -11 geode_2 + 18 obsidian_3 -11 geode_3 + 17 obsidian_4 -11 geode_4
 + 16 obsidian_5 -11 geode_5 + 15 obsidian_6 -11 geode_6 + 14 obsidian_7 -11 geode_7 + 13 obsidian_8 -11 geode_8 + 12 obsidian_9 -11 geode_9
 + 11 obsidian_10 -11 geode_10 + 10 obsidian_11 -11 geode_11 + 9 obsidian_12 -11 geode_12 + 8 obsidian_13 -11 geode_13 + 7 obsidian_14 -11 geode_14
 + 6 obsidian_15 -11 geode_15 + 5 obsidian_16 -11 geode_16 + 4 obsidian_17 -11 geode_17 + 3 obsidian_18 -11 geode_18 + 2 obsidian_19 -11 geode_19
 + obsidian_20 -11 geode_20 -11 geode_21 -11 geode_22 >= -0
constr(92):  ore_23 + clay_23 + obsidian_23 + geode_23 <= 1
constr(93):  20 ore_0 -2 clay_0 -2 obsidian_0 -2 geode_0 + 19 ore_1 -2 clay_1 -2 obsidian_1 -2 geode_1 + 18 ore_2 -2 clay_2
 -2 obsidian_2 -2 geode_2 + 17 ore_3 -2 clay_3 -2 obsidian_3 -2 geode_3 + 16 ore_4 -2 clay_4 -2 obsidian_4 -2 geode_4
 + 15 ore_5 -2 clay_5 -2 obsidian_5 -2 geode_5 + 14 ore_6 -2 clay_6 -2 obsidian_6 -2 geode_6 + 13 ore_7 -2 clay_7
 -2 obsidian_7 -2 geode_7 + 12 ore_8 -2 clay_8 -2 obsidian_8 -2 geode_8 + 11 ore_9 -2 clay_9 -2 obsidian_9 -2 geode_9
 + 10 ore_10 -2 clay_10 -2 obsidian_10 -2 geode_10 + 9 ore_11 -2 clay_11 -2 obsidian_11 -2 geode_11 + 8 ore_12 -2 clay_12
 -2 obsidian_12 -2 geode_12 + 7 ore_13 -2 clay_13 -2 obsidian_13 -2 geode_13 + 6 ore_14 -2 clay_14 -2 obsidian_14 -2 geode_14
 + 5 ore_15 -2 clay_15 -2 obsidian_15 -2 geode_15 + 4 ore_16 -2 clay_16 -2 obsidian_16 -2 geode_16 + 3 ore_17 -2 clay_17
 -2 obsidian_17 -2 geode_17 + 2 ore_18 -2 clay_18 -2 obsidian_18 -2 geode_18 + ore_19 -2 clay_19 -2 obsidian_19 -2 geode_19
 -2 clay_20 -2 obsidian_20 -2 geode_20 - ore_21 -2 clay_21 -2 obsidian_21 -2 geode_21 -2 ore_22 -2 clay_22 -2 obsidian_22
 -2 geode_22 -2 ore_23 -2 clay_23 -2 obsidian_23 -2 geode_23 >= -23
constr(94):  22 clay_0 -10 obsidian_0 + 21 clay_1 -10 obsidian_1 + 20 clay_2 -10 obsidian_2 + 19 clay_3 -10 obsidian_3 + 18 clay_4 -10 obsidian_4
 + 17 clay_5 -10 obsidian_5 + 16 clay_6 -10 obsidian_6 + 15 clay_7 -10 obsidian_7 + 14 clay_8 -10 obsidian_8 + 13 clay_9 -10 obsidian_9
 + 12 clay_10 -10 obsidian_10 + 11 clay_11 -10 obsidian_11 + 10 clay_12 -10 obsidian_12 + 9 clay_13 -10 obsidian_13 + 8 clay_14 -10 obsidian_14
 + 7 clay_15 -10 obsidian_15 + 6 clay_16 -10 obsidian_16 + 5 clay_17 -10 obsidian_17 + 4 clay_18 -10 obsidian_18 + 3 clay_19 -10 obsidian_19
 + 2 clay_20 -10 obsidian_20 + clay_21 -10 obsidian_21 -10 obsidian_22 -10 obsidian_23 >= -0
constr(95):  22 obsidian_0 -11 geode_0 + 21 obsidian_1 -11 geode_1 + 20 obsidian_2 -11 geode_2 + 19 obsidian_3 -11 geode_3 + 18 obsidian_4 -11 geode_4
 + 17 obsidian_5 -11 geode_5 + 16 obsidian_6 -11 geode_6 + 15 obsidian_7 -11 geode_7 + 14 obsidian_8 -11 geode_8 + 13 obsidian_9 -11 geode_9
 + 12 obsidian_10 -11 geode_10 + 11 obsidian_11 -11 geode_11 + 10 obsidian_12 -11 geode_12 + 9 obsidian_13 -11 geode_13 + 8 obsidian_14 -11 geode_14
 + 7 obsidian_15 -11 geode_15 + 6 obsidian_16 -11 geode_16 + 5 obsidian_17 -11 geode_17 + 4 obsidian_18 -11 geode_18 + 3 obsidian_19 -11 geode_19
 + 2 obsidian_20 -11 geode_20 + obsidian_21 -11 geode_21 -11 geode_22 -11 geode_23 >= -0
Bounds
 0 <= ore_0 <= 1
 0 <= clay_0 <= 1
 0 <= obsidian_0 <= 1
 0 <= geode_0 <= 1
 0 <= ore_1 <= 1
 0 <= clay_1 <= 1
 0 <= obsidian_1 <= 1
 0 <= geode_1 <= 1
 0 <= ore_2 <= 1
 0 <= clay_2 <= 1
 0 <= obsidian_2 <= 1
 0 <= geode_2 <= 1
 0 <= ore_3 <= 1
 0 <= clay_3 <= 1
 0 <= obsidian_3 <= 1
 0 <= geode_3 <= 1
 0 <= ore_4 <= 1
 0 <= clay_4 <= 1
 0 <= obsidian_4 <= 1
 0 <= geode_4 <= 1
 0 <= ore_5 <= 1
 0 <= clay_5 <= 1
 0 <= obsidian_5 <= 1
 0 <= geode_5 <= 1
 0 <= ore_6 <= 1
 0 <= clay_6 <= 1
 0 <= obsidian_6 <= 1
 0 <= geode_6 <= 1
 0 <= ore_7 <= 1
 0 <= clay_7 <= 1
 0 <= obsidian_7 <= 1
 0 <= geode_7 <= 1
 0 <= ore_8 <= 1
 0 <= clay_8 <= 1
 0 <= obsidian_8 <= 1
 0 <= geode_8 <= 1
 0 <= ore_9 <= 1
 0 <= clay_9 <= 1
 0 <= obsidian_9 <= 1
 0 <= geode_9 <= 1
 0 <= ore_10 <= 1
 0 <= clay_10 <= 1
 0 <= obsidian_10 <= 1
 0 <= geode_10 <= 1
 0 <= ore_11 <= 1
 0 <= clay_11 <= 1
 0 <= obsidian_11 <= 1
 0 <= geode_11 <= 1
 0 <= ore_12 <= 1
 0 <= clay_12 <= 1
 0 <= obsidian_12 <= 1
 0 <= geode_12 <= 1
 0 <= ore_13 <= 1
 0 <= clay_13 <= 1
 0 <= obsidian_13 <= 1
 0 <= geode_13 <= 1
 0 <= ore_14 <= 1
 0 <= clay_14 <= 1
 0 <= obsidian_14 <= 1
 0 <= geode_14 <= 1
 0 <= ore_15 <= 1
 0 <= clay_15 <= 1
 0 <= obsidian_15 <= 1
 0 <= geode_15 <= 1
 0 <= ore_16 <= 1
 0 <= clay_16 <= 1
 0 <= obsidian_16 <= 1
 0 <= geode_16 <= 1
 0 <= ore_17 <= 1
 0 <= clay_17 <= 1
 0 <= obsidian_17 <= 1
 0 <= geode_17 <= 1
 0 <= ore_18 <= 1
 0 <= clay_18 <= 1
 0 <= obsidian_18 <= 1
 0 <= geode_18 <= 1
 0 <= ore_19 <= 1
 0 <= clay_19 <= 1
 0 <= obsidian_19 <= 1
 0 <= geode_19 <= 1
 0 <= ore_20 <= 1
 0 <= clay_20 <= 1
 0 <= obsidian_20 <= 1
 0 <= geode_20 <= 1
 0 <= ore_21 <= 1
 0 <= clay_21 <= 1
 0 <= obsidian_21 <= 1
 0 <= geode_21 <= 1
 0 <= ore_22 <= 1
 0 <= clay_22 <= 1
 0 <= obsidian_22 <= 1
 0 <= geode_22 <= 1
 0 <= ore_23 <= 1
 0 <= clay_23 <= 1
 0 <= obsidian_23 <= 1
 0 <= geode_23 <= 1
Integers
ore_0 clay_0 obsidian_0 geode_0 ore_1 clay_1 obsidian_1 geode_1 ore_2 clay_2 
obsidian_2 geode_2 ore_3 clay_3 obsidian_3 geode_3 ore_4 clay_4 obsidian_4 geode_4 
ore_5 clay_5 obsidian_5 geode_5 ore_6 clay_6 obsidian_6 geode_6 ore_7 clay_7 
obsidian_7 geode_7 ore_8 clay_8 obsidian_8 geode_8 ore_9 clay_9 obsidian_9 geode_9 
ore_10 clay_10 obsidian_10 geode_10 ore_11 clay_11 obsidian_11 geode_11 ore_12 clay_12 
obsidian_12 geode_12 ore_13 clay_13 obsidian_13 geode_13 ore_14 clay_14 obsidian_14 geode_14 
ore_15 clay_15 obsidian_15 geode_15 ore_16 clay_16 obsidian_16 geode_16 ore_17 clay_17 
obsidian_17 geode_17 ore_18 clay_18 obsidian_18 geode_18 ore_19 clay_19 obsidian_19 geode_19 
ore_20 clay_20 obsidian_20 geode_20 ore_21 clay_21 obsidian_21 geode_21 ore_22 clay_22 
obsidian_22 geode_22 ore_23 clay_23 obsidian_23 geode_23 
End
